2 0 -1 2 6 -1 3 1 9 -1 
8 5 5 1 6 -1 0 8 5 -1 
4 8 7 4 9 0 1 6 9 -1 
7 2 7 -1 0 -1 7 -1 1 -1 
0 1 6 2 5 -1 3 5 9 -1 
0 9 2 3 -1 6 7 1 5 -1 
8 -1 9 5 9 2 4 0 2 -1 
3 3 9 7 7 1 3 2 0 -1 
1 7 -1 0 7 4 0 7 7 -1 
9 1 0 3 0 8 8 5 8 -1 
